NAME : BHR102C.1775764.tour
COMMENT : Cost = 0_1775764
COMMENT : Found by LKH [Keld Helsgaun] Tue Apr 25 16:54:56 2017
TYPE : TOUR
DIMENSION : 122
TOUR_SECTION
1
37
48
49
9
84
122
77
54
111
15
39
101
38
121
89
91
21
33
118
52
10
67
71
105
95
96
99
92
45
44
3
103
43
16
41
113
34
72
79
35
36
78
119
28
70
31
11
32
117
64
65
50
83
106
23
69
25
81
13
110
88
58
98
14
102
53
8
12
20
47
61
90
116
29
30
80
4
55
108
74
75
76
73
107
100
7
120
42
57
5
22
59
112
63
19
114
40
24
68
56
26
27
115
93
60
86
17
87
18
94
97
109
46
62
85
6
104
2
66
82
51
-1
EOF
